37915.5 0
289 288 278 279 282 281 280 287 286 285 284 283 334 335 336 337 338 339 333 332 331 330 340 341 344 343 342 365 368 369 370 367 366 329 328 327 326 325 323 322 324 297 321 320 319 317 318 306 305 307 304 303 301 302 508 507 506 516 515 514 513 509 510 511 512 527 528 529 490 491 492 525 526 523 521 522 517 520 519 518 495 494 524 493 486 485 484 483 481 482 475 476 480 479 477 478 549 548 545 546 547 544 543 541 542 103 104 105 107 109 110 111 112 161 113 114 115 116 117 106 118 119 120 121 122 123 71 72 73 74 75 76 77 78 88 89 94 97 95 96 98 99 100 102 101 551 552 553 554 555 556 557 558 559 550 560 561 562 563 564 565 566 567 29 28 27 26 25 24 21 14 15 16 17 18 19 20 568 569 570 474 473 472 471 470 469 468 571 467 466 465 464 496 497 463 462 461 460 459 458 457 456 455 454 439 443 444 445 442 446 447 448 449 450 441 440 453 452 499 500 501 498 502 503 504 505 308 309 310 311 451 312 313 316 314 315 374 373 372 371 396 395 375 376 377 378 379 380 381 390 389 388 391 392 393 394 397 398 399 400 404 405 406 407 408 385 387 386 382 383 384 409 403 402 401 360 357 358 359 361 362 363 364 346 345 347 348 349 350 351 352 353 354 355 356 412 411 410 418 419 417 413 414 415 416 420 421 422 423 424 425 426 427 428 429 431 430 432 433 434 435 436 438 437 3 2 1 4 0 5 573 572 6 7 8 9 10 11 13 12 23 22 31 30 32 33 34 35 36 37 38 40 41 39 42 43 49 48 47 44 45 46 91 92 93 90 87 86 85 84 51 50 52 54 53 55 56 83 82 57 58 59 81 80 79 62 61 60 63 64 65 66 67 68 70 69 124 125 126 127 128 129 130 131 132 133 134 135 136 137 138 139 140 141 151 150 149 152 148 147 146 143 142 144 145 158 157 153 156 159 155 160 154 164 166 167 163 162 168 169 171 170 172 108 173 174 175 176 177 178 179 180 181 182 183 185 184 194 195 196 197 198 199 200 201 165 203 204 202 208 207 206 205 209 210 211 212 213 214 215 216 217 223 224 222 221 220 218 219 193 192 191 190 226 225 189 227 228 231 230 229 186 188 187 540 538 539 537 536 535 487 534 488 489 533 532 531 530 233 232 234 235 236 237 240 239 238 246 247 245 244 243 242 241 248 249 250 251 252 254 253 255 256 257 300 299 258 259 260 261 262 263 264 265 266 298 267 271 272 269 268 270 296 295 294 293 291 292 273 274 275 276 277 290 
